20 40
49 42
63 65
32 12
18 18
25 21
28 18
18 24
13 52
44 17
30 25
6 68
63 23
24 58
45 30
11 31
50 35
65 35
57 68
24 12
26 52
47 16
55 20
20 20
42 7
45 10
26 27
62 77
31 67
10 20
65 20
20 50
36 26
35 40
64 42
53 12
26 35
15 10
30 5
65 55
27 43
41 37
8 56
25 30
37 31
60 12
21 24
40 60
27 69
15 19
46 13
5 30
31 52
49 11
47 47
53 52
25 24
23 3
19 21
49 58
55 5
22 22
35 69
56 37
15 60
57 29
35 35
20 26
2 60
45 65
41 49
55 54
35 17
30 60
17 34
45 20
12 24
53 43
15 77
61 52
49 73
5 5
22 27
67 5
55 45
40 25
4 18
56 39
11 14
37 47
37 56
57 48
6 38
15 30
2 48
20 65
10 43
55 60
15 47
14 37
16 22
20 40
